p wcnf 138 276 277 
1 -63 -116 0 
1 -80 -18 0 
1 43 110 0 
1 -81 9 0 
1 -74 -48 0 
1 -88 -75 0 
1 57 -41 0 
1 135 -10 0 
1 -66 -24 0 
1 -42 -64 0 
1 -96 -124 0 
1 2 -93 0 
1 54 -62 0 
1 -18 117 0 
1 53 12 0 
1 25 -129 0 
1 -21 -10 0 
1 110 28 0 
1 71 23 0 
1 -3 13 0 
1 -84 -44 0 
1 -129 -46 0 
1 97 -102 0 
1 -87 -102 0 
1 51 27 0 
1 9 20 0 
1 -75 102 0 
1 131 -65 0 
1 -88 76 0 
1 -8 -31 0 
1 -38 -104 0 
1 -67 -127 0 
1 -101 15 0 
1 70 -3 0 
1 94 129 0 
1 105 -21 0 
1 -12 68 0 
1 -128 117 0 
1 -11 114 0 
1 131 -109 0 
1 -17 20 0 
1 33 -26 0 
1 -1 26 0 
1 -14 -57 0 
1 -23 39 0 
1 -24 36 0 
1 138 -74 0 
1 88 25 0 
1 -7 -87 0 
1 97 73 0 
1 -95 5 0 
1 -105 -83 0 
1 -33 -14 0 
1 51 -125 0 
1 -8 -24 0 
1 72 -115 0 
1 -76 115 0 
1 -71 -58 0 
1 136 -127 0 
1 54 -60 0 
1 74 127 0 
1 100 -54 0 
1 130 -106 0 
1 12 100 0 
1 -8 -108 0 
1 108 126 0 
1 110 -111 0 
1 -101 76 0 
1 -63 87 0 
1 34 123 0 
1 25 -94 0 
1 -57 98 0 
1 -67 -28 0 
1 -50 -73 0 
1 -94 -129 0 
1 -117 -34 0 
1 -35 53 0 
1 58 121 0 
1 103 -1 0 
1 19 38 0 
1 78 -67 0 
1 95 -21 0 
1 -66 3 0 
1 -43 -96 0 
1 54 21 0 
1 130 51 0 
1 6 78 0 
1 -10 71 0 
1 134 -34 0 
1 92 131 0 
1 -46 -136 0 
1 84 -56 0 
1 69 -44 0 
1 90 -17 0 
1 -90 -45 0 
1 44 -132 0 
1 117 -64 0 
1 138 -50 0 
1 37 122 0 
1 -76 -61 0 
1 -4 68 0 
1 -16 70 0 
1 -102 25 0 
1 -30 -63 0 
1 -51 122 0 
1 -79 88 0 
1 83 78 0 
1 -126 28 0 
1 122 74 0 
1 97 28 0 
1 110 -103 0 
1 99 105 0 
1 -118 45 0 
1 48 97 0 
1 92 122 0 
1 24 -54 0 
1 -8 -98 0 
1 122 36 0 
1 76 -14 0 
1 95 53 0 
1 -121 50 0 
1 1 114 0 
1 88 46 0 
1 -87 34 0 
1 -105 -79 0 
1 7 8 0 
1 99 -70 0 
1 -77 27 0 
1 -92 21 0 
1 79 134 0 
1 75 66 0 
1 -78 24 0 
1 -128 -31 0 
1 -132 -66 0 
1 88 -59 0 
1 8 115 0 
1 17 98 0 
1 -82 47 0 
1 -86 61 0 
1 61 76 0 
1 91 100 0 
1 38 34 0 
1 -91 -84 0 
1 -84 41 0 
1 135 31 0 
1 -76 54 0 
1 -79 51 0 
1 41 6 0 
1 -52 -72 0 
1 107 -17 0 
1 72 -102 0 
1 -104 -58 0 
1 106 -25 0 
1 68 -92 0 
1 119 12 0 
1 -138 34 0 
1 88 120 0 
1 42 -44 0 
1 106 14 0 
1 -99 79 0 
1 -73 2 0 
1 59 136 0 
1 -3 124 0 
1 -34 90 0 
1 80 -60 0 
1 2 -106 0 
1 -111 80 0 
1 -129 125 0 
1 -81 -136 0 
1 -103 131 0 
1 112 119 0 
1 -119 -111 0 
1 89 -109 0 
1 -63 92 0 
1 132 105 0 
1 65 3 0 
1 -58 134 0 
1 -17 6 0 
1 -28 86 0 
1 64 88 0 
1 29 -35 0 
1 31 -78 0 
1 93 -99 0 
1 -46 77 0 
1 81 -59 0 
1 130 -93 0 
1 -11 -104 0 
1 -38 -22 0 
1 62 -109 0 
1 -42 126 0 
1 -88 97 0 
1 43 -137 0 
1 -66 17 0 
1 50 -30 0 
1 -118 73 0 
1 -33 87 0 
1 -94 137 0 
1 44 -31 0 
1 -118 21 0 
1 4 -96 0 
1 4 2 0 
1 -53 -79 0 
1 21 65 0 
1 -37 -64 0 
1 -45 98 0 
1 14 -74 0 
1 -89 -3 0 
1 128 -33 0 
1 -77 10 0 
1 -27 -1 0 
1 -82 -52 0 
1 30 128 0 
1 70 -74 0 
1 -99 -85 0 
1 -11 -98 0 
1 -6 -26 0 
1 -96 84 0 
1 35 -130 0 
1 98 74 0 
1 116 -31 0 
1 78 -5 0 
1 -75 -137 0 
1 63 56 0 
1 -92 131 0 
1 13 33 0 
1 -130 112 0 
1 118 45 0 
1 37 73 0 
1 -86 -118 0 
1 -23 -26 0 
1 -49 -132 0 
1 -116 92 0 
1 -50 109 0 
1 106 6 0 
1 -17 98 0 
1 -119 59 0 
1 -31 39 0 
1 121 -102 0 
1 -136 -127 0 
1 -110 42 0 
1 -106 79 0 
1 136 89 0 
1 63 -66 0 
1 133 -114 0 
1 -9 -2 0 
1 -93 38 0 
1 112 -118 0 
1 62 -82 0 
1 -83 -2 0 
1 -1 -120 0 
1 22 -13 0 
1 120 -42 0 
1 -93 -85 0 
1 26 36 0 
1 -117 -136 0 
1 76 110 0 
1 20 36 0 
1 -106 62 0 
1 -79 -123 0 
1 80 60 0 
1 29 54 0 
1 -17 107 0 
1 -45 -111 0 
1 123 -12 0 
1 -6 12 0 
1 137 -95 0 
1 -129 -47 0 
1 -8 -13 0 
1 -20 -130 0 
1 -14 -102 0 
1 -37 -18 0 
1 19 -124 0 
1 8 -58 0 
1 31 -77 0 
1 40 11 0 
1 -71 -77 0 
